Minimize
    r
Subject to
    x111 + x121 = 2
    x112 + x122 = 3
    x113 + x123 = 4
    x114 + x124 = 5
    x115 + x125 = 6
    x116 + x126 = 7
    x117 + x127 = 8
    x211 + x221 = 3
    x212 + x222 = 4
    x213 + x223 = 5
    x214 + x224 = 6
    x215 + x225 = 7
    x216 + x226 = 8
    x217 + x227 = 9
    x311 + x321 = 4
    x312 + x322 = 5
    x313 + x323 = 6
    x314 + x324 = 7
    x315 + x325 = 8
    x316 + x326 = 9
    x317 + x327 = 10
    x411 + x421 = 5
    x412 + x422 = 6
    x413 + x423 = 7
    x414 + x424 = 8
    x415 + x425 = 9
    x416 + x426 = 10
    x417 + x427 = 11
    x511 + x521 = 6
    x512 + x522 = 7
    x513 + x523 = 8
    x514 + x524 = 9
    x515 + x525 = 10
    x516 + x526 = 11
    x517 + x527 = 12
    x611 + x621 = 7
    x612 + x622 = 8
    x613 + x623 = 9
    x614 + x624 = 10
    x615 + x625 = 11
    x616 + x626 = 12
    x617 + x627 = 13
    x711 + x721 = 8
    x712 + x722 = 9
    x713 + x723 = 10
    x714 + x724 = 11
    x715 + x725 = 12
    x716 + x726 = 13
    x717 + x727 = 14
    u111 + u121 = 2
    u112 + u122 = 2
    u113 + u123 = 2
    u114 + u124 = 2
    u115 + u125 = 2
    u116 + u126 = 2
    u117 + u127 = 2
    u211 + u221 = 2
    u212 + u222 = 2
    u213 + u223 = 2
    u214 + u224 = 2
    u215 + u225 = 2
    u216 + u226 = 2
    u217 + u227 = 2
    u311 + u321 = 2
    u312 + u322 = 2
    u313 + u323 = 2
    u314 + u324 = 2
    u315 + u325 = 2
    u316 + u326 = 2
    u317 + u327 = 2
    u411 + u421 = 2
    u412 + u422 = 2
    u413 + u423 = 2
    u414 + u424 = 2
    u415 + u425 = 2
    u416 + u426 = 2
    u417 + u427 = 2
    u511 + u521 = 2
    u512 + u522 = 2
    u513 + u523 = 2
    u514 + u524 = 2
    u515 + u525 = 2
    u516 + u526 = 2
    u517 + u527 = 2
    u611 + u621 = 2
    u612 + u622 = 2
    u613 + u623 = 2
    u614 + u624 = 2
    u615 + u625 = 2
    u616 + u626 = 2
    u617 + u627 = 2
    u711 + u721 = 2
    u712 + u722 = 2
    u713 + u723 = 2
    u714 + u724 = 2
    u715 + u725 = 2
    u716 + u726 = 2
    u717 + u727 = 2
    x111 = 1.0 * u111
    x121 = 1.0 * u121
    x112 = 1.5 * u112
    x122 = 1.5 * u122
    x113 = 2.0 * u113
    x123 = 2.0 * u123
    x114 = 2.5 * u114
    x124 = 2.5 * u124
    x115 = 3.0 * u115
    x125 = 3.0 * u125
    x116 = 3.5 * u116
    x126 = 3.5 * u126
    x117 = 4.0 * u117
    x127 = 4.0 * u127
    x211 = 1.5 * u211
    x221 = 1.5 * u221
    x212 = 2.0 * u212
    x222 = 2.0 * u222
    x213 = 2.5 * u213
    x223 = 2.5 * u223
    x214 = 3.0 * u214
    x224 = 3.0 * u224
    x215 = 3.5 * u215
    x225 = 3.5 * u225
    x216 = 4.0 * u216
    x226 = 4.0 * u226
    x217 = 4.5 * u217
    x227 = 4.5 * u227
    x311 = 2.0 * u311
    x321 = 2.0 * u321
    x312 = 2.5 * u312
    x322 = 2.5 * u322
    x313 = 3.0 * u313
    x323 = 3.0 * u323
    x314 = 3.5 * u314
    x324 = 3.5 * u324
    x315 = 4.0 * u315
    x325 = 4.0 * u325
    x316 = 4.5 * u316
    x326 = 4.5 * u326
    x317 = 5.0 * u317
    x327 = 5.0 * u327
    x411 = 2.5 * u411
    x421 = 2.5 * u421
    x412 = 3.0 * u412
    x422 = 3.0 * u422
    x413 = 3.5 * u413
    x423 = 3.5 * u423
    x414 = 4.0 * u414
    x424 = 4.0 * u424
    x415 = 4.5 * u415
    x425 = 4.5 * u425
    x416 = 5.0 * u416
    x426 = 5.0 * u426
    x417 = 5.5 * u417
    x427 = 5.5 * u427
    x511 = 3.0 * u511
    x521 = 3.0 * u521
    x512 = 3.5 * u512
    x522 = 3.5 * u522
    x513 = 4.0 * u513
    x523 = 4.0 * u523
    x514 = 4.5 * u514
    x524 = 4.5 * u524
    x515 = 5.0 * u515
    x525 = 5.0 * u525
    x516 = 5.5 * u516
    x526 = 5.5 * u526
    x517 = 6.0 * u517
    x527 = 6.0 * u527
    x611 = 3.5 * u611
    x621 = 3.5 * u621
    x612 = 4.0 * u612
    x622 = 4.0 * u622
    x613 = 4.5 * u613
    x623 = 4.5 * u623
    x614 = 5.0 * u614
    x624 = 5.0 * u624
    x615 = 5.5 * u615
    x625 = 5.5 * u625
    x616 = 6.0 * u616
    x626 = 6.0 * u626
    x617 = 6.5 * u617
    x627 = 6.5 * u627
    x711 = 4.0 * u711
    x721 = 4.0 * u721
    x712 = 4.5 * u712
    x722 = 4.5 * u722
    x713 = 5.0 * u713
    x723 = 5.0 * u723
    x714 = 5.5 * u714
    x724 = 5.5 * u724
    x715 = 6.0 * u715
    x725 = 6.0 * u725
    x716 = 6.5 * u716
    x726 = 6.5 * u726
    x717 = 7.0 * u717
    x727 = 7.0 * u727
    x111 u111 + x121 u121 <= 100 * r
    x112 u112 + x122 u122 <= 100 * r
    x113 u113 + x123 u123 <= 100 * r
    x114 u114 + x124 u124 <= 100 * r
    x115 u115 + x125 u125 <= 100 * r
    x116 u116 + x126 u126 <= 100 * r
    x117 u117 + x127 u127 <= 100 * r
    x211 u211 + x221 u221 <= 100 * r
    x212 u212 + x222 u222 <= 100 * r
    x213 u213 + x223 u223 <= 100 * r
    x214 u214 + x224 u224 <= 100 * r
    x215 u215 + x225 u225 <= 100 * r
    x216 u216 + x226 u226 <= 100 * r
    x217 u217 + x227 u227 <= 100 * r
    x311 u311 + x321 u321 <= 100 * r
    x312 u312 + x322 u322 <= 100 * r
    x313 u313 + x323 u323 <= 100 * r
    x314 u314 + x324 u324 <= 100 * r
    x315 u315 + x325 u325 <= 100 * r
    x316 u316 + x326 u326 <= 100 * r
    x317 u317 + x327 u327 <= 100 * r
    x411 u411 + x421 u421 <= 100 * r
    x412 u412 + x422 u422 <= 100 * r
    x413 u413 + x423 u423 <= 100 * r
    x414 u414 + x424 u424 <= 100 * r
    x415 u415 + x425 u425 <= 100 * r
    x416 u416 + x426 u426 <= 100 * r
    x417 u417 + x427 u427 <= 100 * r
    x511 u511 + x521 u521 <= 100 * r
    x512 u512 + x522 u522 <= 100 * r
    x513 u513 + x523 u523 <= 100 * r
    x514 u514 + x524 u524 <= 100 * r
    x515 u515 + x525 u525 <= 100 * r
    x516 u516 + x526 u526 <= 100 * r
    x517 u517 + x527 u527 <= 100 * r
    x611 u611 + x621 u621 <= 100 * r
    x612 u612 + x622 u622 <= 100 * r
    x613 u613 + x623 u623 <= 100 * r
    x614 u614 + x624 u624 <= 100 * r
    x615 u615 + x625 u625 <= 100 * r
    x616 u616 + x626 u626 <= 100 * r
    x617 u617 + x627 u627 <= 100 * r
    x711 u711 + x721 u721 <= 100 * r
    x712 u712 + x722 u722 <= 100 * r
    x713 u713 + x723 u723 <= 100 * r
    x714 u714 + x724 u724 <= 100 * r
    x715 u715 + x725 u725 <= 100 * r
    x716 u716 + x726 u726 <= 100 * r
    x717 u717 + x727 u727 <= 100 * r
    x111 u111 + x211 u211 + x311 u311 + x411 u411 + x511 u511 + x611 u611 + x711 u711 <= 100 * r
    x112 u112 + x212 u212 + x312 u312 + x412 u412 + x512 u512 + x612 u612 + x712 u712 <= 100 * r
    x113 u113 + x213 u213 + x313 u313 + x413 u413 + x513 u513 + x613 u613 + x713 u713 <= 100 * r
    x114 u114 + x214 u214 + x314 u314 + x414 u414 + x514 u514 + x614 u614 + x714 u714 <= 100 * r
    x115 u115 + x215 u215 + x315 u315 + x415 u415 + x515 u515 + x615 u615 + x715 u715 <= 100 * r
    x116 u116 + x216 u216 + x316 u316 + x416 u416 + x516 u516 + x616 u616 + x716 u716 <= 100 * r
    x117 u117 + x217 u217 + x317 u317 + x417 u417 + x517 u517 + x617 u617 + x717 u717 <= 100 * r
    x121 u121 + x221 u221 + x321 u321 + x421 u421 + x521 u521 + x621 u621 + x721 u721 <= 100 * r
    x122 u122 + x222 u222 + x322 u322 + x422 u422 + x522 u522 + x622 u622 + x722 u722 <= 100 * r
    x123 u123 + x223 u223 + x323 u323 + x423 u423 + x523 u523 + x623 u623 + x723 u723 <= 100 * r
    x124 u124 + x224 u224 + x324 u324 + x424 u424 + x524 u524 + x624 u624 + x724 u724 <= 100 * r
    x125 u125 + x225 u225 + x325 u325 + x425 u425 + x525 u525 + x625 u625 + x725 u725 <= 100 * r
    x126 u126 + x226 u226 + x326 u326 + x426 u426 + x526 u526 + x626 u626 + x726 u726 <= 100 * r
    x127 u127 + x227 u227 + x327 u327 + x427 u427 + x527 u527 + x627 u627 + x727 u727 <= 100 * r
Bounds
    x111 >= 0
    x112 >= 0
    x113 >= 0
    x114 >= 0
    x115 >= 0
    x116 >= 0
    x117 >= 0
    x121 >= 0
    x122 >= 0
    x123 >= 0
    x124 >= 0
    x125 >= 0
    x126 >= 0
    x127 >= 0
    x211 >= 0
    x212 >= 0
    x213 >= 0
    x214 >= 0
    x215 >= 0
    x216 >= 0
    x217 >= 0
    x221 >= 0
    x222 >= 0
    x223 >= 0
    x224 >= 0
    x225 >= 0
    x226 >= 0
    x227 >= 0
    x311 >= 0
    x312 >= 0
    x313 >= 0
    x314 >= 0
    x315 >= 0
    x316 >= 0
    x317 >= 0
    x321 >= 0
    x322 >= 0
    x323 >= 0
    x324 >= 0
    x325 >= 0
    x326 >= 0
    x327 >= 0
    x411 >= 0
    x412 >= 0
    x413 >= 0
    x414 >= 0
    x415 >= 0
    x416 >= 0
    x417 >= 0
    x421 >= 0
    x422 >= 0
    x423 >= 0
    x424 >= 0
    x425 >= 0
    x426 >= 0
    x427 >= 0
    x511 >= 0
    x512 >= 0
    x513 >= 0
    x514 >= 0
    x515 >= 0
    x516 >= 0
    x517 >= 0
    x521 >= 0
    x522 >= 0
    x523 >= 0
    x524 >= 0
    x525 >= 0
    x526 >= 0
    x527 >= 0
    x611 >= 0
    x612 >= 0
    x613 >= 0
    x614 >= 0
    x615 >= 0
    x616 >= 0
    x617 >= 0
    x621 >= 0
    x622 >= 0
    x623 >= 0
    x624 >= 0
    x625 >= 0
    x626 >= 0
    x627 >= 0
    x711 >= 0
    x712 >= 0
    x713 >= 0
    x714 >= 0
    x715 >= 0
    x716 >= 0
    x717 >= 0
    x721 >= 0
    x722 >= 0
    x723 >= 0
    x724 >= 0
    x725 >= 0
    x726 >= 0
    x727 >= 0
    r >= 0
    r <= 1
Binary
    u111
    u112
    u113
    u114
    u115
    u116
    u117
    u121
    u122
    u123
    u124
    u125
    u126
    u127
    u211
    u212
    u213
    u214
    u215
    u216
    u217
    u221
    u222
    u223
    u224
    u225
    u226
    u227
    u311
    u312
    u313
    u314
    u315
    u316
    u317
    u321
    u322
    u323
    u324
    u325
    u326
    u327
    u411
    u412
    u413
    u414
    u415
    u416
    u417
    u421
    u422
    u423
    u424
    u425
    u426
    u427
    u511
    u512
    u513
    u514
    u515
    u516
    u517
    u521
    u522
    u523
    u524
    u525
    u526
    u527
    u611
    u612
    u613
    u614
    u615
    u616
    u617
    u621
    u622
    u623
    u624
    u625
    u626
    u627
    u711
    u712
    u713
    u714
    u715
    u716
    u717
    u721
    u722
    u723
    u724
    u725
    u726
    u727
End